p edge 54 688
e 1 4
e 1 5
e 1 6
e 1 7
e 1 9
e 1 11
e 1 13
e 1 17
e 1 18
e 1 19
e 1 20
e 1 21
e 1 22
e 1 24
e 1 25
e 1 26
e 1 28
e 1 33
e 1 36
e 1 37
e 1 39
e 1 41
e 1 44
e 1 46
e 1 48
e 1 49
e 1 51
e 1 52
e 2 5
e 2 7
e 2 9
e 2 10
e 2 12
e 2 13
e 2 17
e 2 22
e 2 23
e 2 28
e 2 29
e 2 30
e 2 31
e 2 33
e 2 35
e 2 36
e 2 39
e 2 40
e 2 41
e 2 45
e 2 46
e 2 47
e 2 48
e 2 49
e 2 50
e 2 51
e 2 54
e 3 6
e 3 7
e 3 9
e 3 12
e 3 14
e 3 15
e 3 16
e 3 19
e 3 20
e 3 21
e 3 23
e 3 24
e 3 25
e 3 27
e 3 28
e 3 30
e 3 32
e 3 35
e 3 36
e 3 37
e 3 40
e 3 42
e 3 43
e 3 44
e 3 45
e 3 46
e 3 47
e 3 50
e 3 51
e 4 5
e 4 9
e 4 15
e 4 16
e 4 17
e 4 19
e 4 21
e 4 22
e 4 26
e 4 29
e 4 30
e 4 33
e 4 37
e 4 38
e 4 46
e 4 47
e 4 50
e 4 51
e 5 6
e 5 7
e 5 8
e 5 9
e 5 11
e 5 14
e 5 17
e 5 18
e 5 19
e 5 24
e 5 28
e 5 33
e 5 34
e 5 35
e 5 36
e 5 39
e 5 40
e 5 45
e 5 47
e 5 48
e 5 50
e 5 52
e 5 53
e 6 7
e 6 8
e 6 9
e 6 12
e 6 13
e 6 14
e 6 15
e 6 16
e 6 18
e 6 20
e 6 22
e 6 23
e 6 24
e 6 26
e 6 28
e 6 29
e 6 34
e 6 35
e 6 37
e 6 38
e 6 39
e 6 41
e 6 44
e 6 50
e 6 51
e 6 54
e 7 8
e 7 9
e 7 11
e 7 13
e 7 19
e 7 20
e 7 21
e 7 23
e 7 24
e 7 25
e 7 26
e 7 29
e 7 31
e 7 32
e 7 33
e 7 34
e 7 35
e 7 38
e 7 41
e 7 44
e 7 45
e 7 47
e 7 49
e 7 52
e 7 54
e 8 10
e 8 12
e 8 16
e 8 17
e 8 18
e 8 20
e 8 21
e 8 23
e 8 27
e 8 28
e 8 30
e 8 31
e 8 32
e 8 33
e 8 34
e 8 36
e 8 37
e 8 39
e 8 40
e 8 41
e 8 42
e 8 43
e 8 44
e 8 47
e 8 49
e 8 53
e 9 13
e 9 14
e 9 15
e 9 22
e 9 23
e 9 25
e 9 28
e 9 33
e 9 35
e 9 36
e 9 37
e 9 38
e 9 39
e 9 40
e 9 42
e 9 44
e 9 47
e 9 48
e 9 50
e 9 51
e 9 52
e 9 53
e 9 54
e 10 11
e 10 12
e 10 14
e 10 16
e 10 18
e 10 20
e 10 21
e 10 22
e 10 25
e 10 26
e 10 27
e 10 28
e 10 29
e 10 31
e 10 33
e 10 36
e 10 37
e 10 40
e 10 41
e 10 43
e 10 46
e 10 48
e 10 49
e 10 50
e 10 53
e 11 12
e 11 13
e 11 15
e 11 16
e 11 17
e 11 18
e 11 20
e 11 24
e 11 26
e 11 28
e 11 29
e 11 31
e 11 32
e 11 37
e 11 38
e 11 40
e 11 41
e 11 42
e 11 45
e 11 46
e 11 47
e 11 49
e 11 51
e 12 13
e 12 14
e 12 15
e 12 16
e 12 21
e 12 23
e 12 24
e 12 25
e 12 26
e 12 29
e 12 30
e 12 33
e 12 35
e 12 37
e 12 39
e 12 40
e 12 42
e 12 44
e 12 45
e 12 48
e 12 50
e 12 51
e 13 14
e 13 15
e 13 16
e 13 17
e 13 19
e 13 20
e 13 21
e 13 24
e 13 27
e 13 28
e 13 31
e 13 32
e 13 38
e 13 40
e 13 43
e 13 45
e 13 47
e 13 50
e 13 52
e 13 53
e 13 54
e 14 15
e 14 17
e 14 25
e 14 29
e 14 35
e 14 38
e 14 39
e 14 42
e 14 48
e 14 49
e 14 50
e 14 53
e 14 54
e 15 20
e 15 21
e 15 29
e 15 30
e 15 31
e 15 32
e 15 33
e 15 34
e 15 37
e 15 38
e 15 39
e 15 42
e 15 43
e 15 44
e 15 45
e 15 47
e 15 48
e 15 49
e 15 50
e 15 53
e 16 19
e 16 20
e 16 24
e 16 25
e 16 27
e 16 29
e 16 34
e 16 38
e 16 40
e 16 41
e 16 42
e 16 43
e 16 44
e 16 49
e 16 54
e 17 19
e 17 20
e 17 21
e 17 24
e 17 25
e 17 27
e 17 28
e 17 29
e 17 34
e 17 35
e 17 39
e 17 40
e 17 41
e 17 43
e 17 46
e 17 47
e 17 48
e 17 51
e 17 52
e 17 53
e 17 54
e 18 21
e 18 24
e 18 25
e 18 28
e 18 29
e 18 30
e 18 32
e 18 33
e 18 35
e 18 37
e 18 38
e 18 39
e 18 40
e 18 41
e 18 43
e 18 46
e 18 47
e 19 21
e 19 22
e 19 24
e 19 25
e 19 30
e 19 32
e 19 35
e 19 39
e 19 40
e 19 43
e 19 47
e 19 48
e 19 50
e 19 51
e 19 53
e 20 22
e 20 24
e 20 25
e 20 27
e 20 29
e 20 31
e 20 34
e 20 35
e 20 36
e 20 37
e 20 46
e 20 47
e 20 49
e 20 50
e 20 51
e 20 52
e 20 53
e 21 24
e 21 25
e 21 26
e 21 27
e 21 28
e 21 29
e 21 31
e 21 32
e 21 33
e 21 34
e 21 43
e 21 46
e 21 47
e 21 48
e 21 49
e 21 50
e 21 51
e 22 23
e 22 24
e 22 27
e 22 29
e 22 31
e 22 36
e 22 37
e 22 42
e 22 43
e 22 44
e 22 45
e 22 46
e 22 48
e 22 50
e 22 53
e 23 24
e 23 25
e 23 31
e 23 35
e 23 36
e 23 37
e 23 38
e 23 42
e 23 44
e 23 45
e 23 47
e 23 48
e 23 49
e 23 50
e 23 51
e 23 52
e 23 53
e 23 54
e 24 26
e 24 27
e 24 28
e 24 29
e 24 30
e 24 32
e 24 33
e 24 36
e 24 38
e 24 39
e 24 41
e 24 42
e 24 43
e 24 45
e 24 46
e 24 48
e 24 49
e 24 50
e 24 54
e 25 26
e 25 28
e 25 29
e 25 31
e 25 32
e 25 35
e 25 38
e 25 41
e 25 45
e 25 47
e 25 48
e 25 49
e 25 51
e 25 54
e 26 29
e 26 30
e 26 32
e 26 35
e 26 37
e 26 38
e 26 39
e 26 42
e 26 43
e 26 44
e 26 45
e 26 52
e 27 31
e 27 32
e 27 33
e 27 37
e 27 38
e 27 39
e 27 42
e 27 43
e 27 44
e 27 50
e 27 51
e 28 30
e 28 31
e 28 33
e 28 34
e 28 36
e 28 37
e 28 38
e 28 43
e 28 46
e 28 51
e 29 30
e 29 31
e 29 35
e 29 41
e 29 46
e 29 47
e 29 48
e 29 51
e 29 52
e 29 53
e 30 31
e 30 33
e 30 34
e 30 35
e 30 41
e 30 43
e 30 52
e 30 53
e 31 33
e 31 38
e 31 40
e 31 44
e 31 46
e 31 50
e 31 51
e 31 52
e 31 54
e 32 34
e 32 36
e 32 38
e 32 41
e 32 42
e 32 44
e 32 46
e 32 47
e 32 48
e 32 52
e 32 53
e 33 35
e 33 41
e 33 44
e 33 47
e 33 51
e 33 52
e 33 53
e 33 54
e 34 38
e 34 40
e 34 42
e 34 43
e 34 47
e 34 49
e 34 54
e 35 36
e 35 37
e 35 38
e 35 39
e 35 41
e 35 45
e 35 46
e 35 47
e 35 51
e 35 53
e 36 37
e 36 38
e 36 39
e 36 41
e 36 44
e 36 45
e 36 51
e 37 39
e 37 50
e 38 39
e 38 42
e 38 49
e 38 51
e 38 54
e 39 41
e 39 42
e 39 43
e 39 44
e 39 46
e 39 52
e 39 54
e 40 41
e 40 42
e 40 43
e 40 44
e 40 48
e 40 50
e 40 51
e 40 53
e 40 54
e 41 42
e 41 43
e 41 44
e 41 45
e 41 47
e 41 50
e 41 51
e 41 53
e 41 54
e 42 43
e 42 44
e 42 45
e 42 47
e 42 51
e 42 52
e 42 54
e 43 47
e 43 49
e 43 50
e 43 53
e 44 48
e 44 50
e 44 52
e 44 53
e 44 54
e 45 46
e 45 47
e 45 49
e 45 50
e 45 51
e 45 53
e 46 48
e 46 49
e 46 53
e 47 50
e 48 51
e 48 52
e 48 53
e 49 50
e 49 52
e 49 53
e 50 51
e 50 52
e 50 53
e 51 54
